(set-logic QF_SLIA)
(declare-fun var0 () String)
(assert (str.in_re var0 (re.++ ((_ re.loop 14 983) (re.++ (re.union (str.to_re "W0") (re.union (str.to_re "+|*") (re.union (str.to_re "\\(j") (str.to_re "j{S")))) (re.++ (re.union (str.to_re "|`") (re.union (str.to_re "@=") (re.union (str.to_re ")") (str.to_re ".Pb")))) (re.++ (re.union (str.to_re "yD") (re.union (str.to_re "\u0022") (re.union (str.to_re "TC\\") (str.to_re "CL[")))) (re.union (str.to_re "\u0022+") (re.union (str.to_re "5l") (re.union (str.to_re "5x") (str.to_re "$lc")))))))) (re.++ ((_ re.loop 7 889) (re.++ (re.union (str.to_re "l6") (re.union (str.to_re "C") (re.union (str.to_re "Km") (str.to_re "y")))) (re.++ (re.union (str.to_re "@(") (re.union (str.to_re "4'\u0022") (re.union (str.to_re "p") (str.to_re "uc")))) (re.++ (re.union (str.to_re "f`") (re.union (str.to_re "FEF") (re.union (str.to_re "CI") (str.to_re "C")))) (re.union (str.to_re "s") (re.union (str.to_re "}D\u0022") (re.union (str.to_re "`") (str.to_re "os")))))))) (re.++ ((_ re.loop 16 772) (re.++ (re.union (str.to_re "7") (re.union (str.to_re "\u0022.") (re.union (str.to_re "&\\0") (str.to_re "|")))) (re.++ (re.union (str.to_re "|") (re.union (str.to_re "z") (re.union (str.to_re "sc") (str.to_re "aB")))) (re.++ (re.union (str.to_re "#") (re.union (str.to_re "#j") (re.union (str.to_re "O[g") (str.to_re "n&M")))) (re.union (str.to_re "`w") (re.union (str.to_re "x") (re.union (str.to_re "8`z") (str.to_re "ywR")))))))) ((_ re.loop 19 241) (re.++ (re.union (str.to_re "5c") (re.union (str.to_re "F`") (re.union (str.to_re "WR[") (str.to_re "#mY")))) (re.++ (re.union (str.to_re ">Z") (re.union (str.to_re "|") (re.union (str.to_re "`b4") (str.to_re "n}")))) (re.++ (re.union (str.to_re "s") (re.union (str.to_re "\\US") (re.union (str.to_re "3'{") (str.to_re "o")))) (re.union (str.to_re ",OD") (re.union (str.to_re "A") (re.union (str.to_re "8") (str.to_re "v")))))))))))))
(assert (not (str.in_re var0 (re.++ ((_ re.loop 16 717) (re.++ (re.union (str.to_re "Ps") (re.union (str.to_re "hH") (re.union (str.to_re "}") (str.to_re "oV")))) (re.++ (re.union (str.to_re "H") (re.union (str.to_re "k#") (re.union (str.to_re "A") (str.to_re "uU|")))) (re.++ (re.union (str.to_re "\u00224") (re.union (str.to_re "I") (re.union (str.to_re "qD") (str.to_re "u0")))) (re.union (str.to_re "Dx") (re.union (str.to_re "M") (re.union (str.to_re "@P3") (str.to_re "K")))))))) (re.++ ((_ re.loop 6 869) (re.++ (re.union (str.to_re "[") (re.union (str.to_re "l)") (re.union (str.to_re ">_!") (str.to_re "x")))) (re.++ (re.union (str.to_re "(N") (re.union (str.to_re "(C") (re.union (str.to_re "KU") (str.to_re "s")))) (re.++ (re.union (str.to_re "b") (re.union (str.to_re "1") (re.union (str.to_re "ah_") (str.to_re "rHK")))) (re.union (str.to_re "B") (re.union (str.to_re "~") (re.union (str.to_re ":~") (str.to_re "5+")))))))) (re.++ ((_ re.loop 15 628) (re.++ (re.union (str.to_re "JqW") (re.union (str.to_re "B;}") (re.union (str.to_re "bB") (str.to_re "F&=")))) (re.++ (re.union (str.to_re ";S") (re.union (str.to_re "IO") (re.union (str.to_re "5t:") (str.to_re "2E")))) (re.++ (re.union (str.to_re "\u0022") (re.union (str.to_re "ygZ") (re.union (str.to_re "/M") (str.to_re "+n")))) (re.union (str.to_re "f") (re.union (str.to_re "8:-") (re.union (str.to_re "+") (str.to_re "c")))))))) ((_ re.loop 7 745) (re.++ (re.union (str.to_re "2") (re.union (str.to_re "u") (re.union (str.to_re "F") (str.to_re "v")))) (re.++ (re.union (str.to_re "_[|") (re.union (str.to_re "=C") (re.union (str.to_re "Y") (str.to_re "6'")))) (re.++ (re.union (str.to_re "hK") (re.union (str.to_re "tx&") (re.union (str.to_re ">") (str.to_re "X||")))) (re.union (str.to_re "OLN") (re.union (str.to_re "Lm") (re.union (str.to_re "e") (str.to_re "*}\u0022"))))))))))))))
(assert (not (str.in_re var0 (re.++ (re.* re.allchar) (re.++ (re.union (str.to_re "<") (re.union (str.to_re ">") (re.union (str.to_re "'") (re.union (str.to_re "\u0022") (str.to_re "&"))))) (re.* re.allchar))))))
(assert (<= 50 (str.len var0)))
(check-sat)
(get-model)
